\ LP format - for model browsing. Use MPS format to capture full model detail.
Minimize
  4.6195505923919945e+09 x_9_32 + 9.9716546324593067e+09 x_14_32
   + 2.5941740202737188e+09 x_2_32 + 1.3249571856234737e+10 x_15_32
   + 1.1088075185520731e+10 x_13_32 + 2.1492897624046764e+09 x_1_32
   + 3.4978215625824499e+09 x_6_32 + 1.805090493980876e+09 x_4_32
   + 4.096284953139782e+09 x_7_32 + 8.2977286665708866e+09 x_12_32
   + 8.1488623883070242e+08 x_5_32 + 6.6886519183873482e+09 x_10_32
   + 7.0528707987534451e+08 x_3_32 + 6.6488385141112328e+09 x_11_32
   + 4.6854084925553217e+09 x_8_32 + 1.2492075107616636e+10 x_16_32
Subject To
Bounds
Binaries
 x_9_32 x_14_32 x_2_32 x_15_32 x_13_32 x_1_32 x_6_32 x_4_32 x_7_32 x_12_32
 x_5_32 x_10_32 x_3_32 x_11_32 x_8_32 x_16_32
End
